(set-option :produce-models true)
(set-logic qf_fp)
(define-fun s2 () (_ floatingpoint  8 24) ((_ to_fp 8 24) roundnearesttiestoeven (/ 244681.0 4194304.0)))
(define-fun s4 () (_ floatingpoint  8 24) ((_ to_fp 8 24) roundnearesttiestoeven (/ 1725289.0 16777216.0)))
(declare-fun s0 () (_ floatingpoint  8 24))
(declare-fun s1 () (_ floatingpoint  8 24))
(define-fun s3 () bool (fp.eq s0 s2))
(define-fun s5 () (_ floatingpoint  8 24) (fp.rem s0 s4))
(define-fun s6 () bool (fp.eq s1 s5))
(define-fun s7 () bool (and s3 s6))
(assert s7)
(check-sat)